20
vitamin_c optimized at r2scan/def2-svp (fp64), gmax=1.86e-04 Eh/Bohr, 7 imaginary modes
C     -0.246070688098     1.630154990063     0.112382765477
O      1.156756147904     1.822771423028    -0.103314690604
C      1.465554233624     3.135559444768     0.097460977460
C      0.262134902257     3.854572183936     0.526832588750
C     -0.752106054567     2.965013665234     0.599148209726
H     -0.361712904520     0.829948305267     0.871094102130
O      0.321268189964     5.159147123430     0.821874312669
H      1.249346441759     5.416887243063     0.669809898862
O     -2.023008102099     3.198578426234     0.985912899291
H     -2.449458010682     2.361382297873     1.216650222677
O      2.568792306039     3.607032260351    -0.035391386214
C     -0.863982456935     1.120488022454    -1.191609343163
H     -0.525227564097     1.805012242933    -1.999892503591
C     -2.390909125444     1.114999235935    -1.190592883852
H     -2.787277580755     2.147157473887    -1.160168538484
H     -2.753673523680     0.564202726995    -0.293546284379
O     -0.392157351482    -0.185731633698    -1.383706807227
H     -0.926483994653    -0.547005555417    -2.108671075602
O     -2.756497053592     0.442367982106    -2.379242656264
H     -3.712170455682     0.313123916301    -2.386848946395
